<?xml version = "1.0" encoding="UTF-8" standalone="yes"?>
<CPLEXSolution version="1.2">
 <header
   problemName=""
   solutionName="p0"
   solutionIndex="-1"
   objectiveValue="70"
   solutionTypeValue="3"
   solutionTypeString="primal"
   solutionStatusValue="127"
   solutionStatusString="integer feasible solution"
   solutionMethodString="mip"
   primalFeasible="0"
   dualFeasible="0"
   writeLevel="1"/>
 <quality
   epInt="1.0000000000000001e-05"
   epRHS="9.9999999999999995e-07"
   maxIntInfeas="0"
   maxPrimalInfeas="2.1316282072803006e-14"
   maxX="70"
   maxSlack="78.000000000000014"/>
 <linearConstraints>
  <constraint index="0" slack="2.1316282072803006e-14"/>
  <constraint index="1" slack="-6.0000000000000071"/>
  <constraint index="2" slack="1.4210854715202004e-14"/>
  <constraint index="3" slack="1.4210854715202004e-14"/>
  <constraint index="4" slack="7.1054273576010019e-15"/>
  <constraint index="5" slack="1.4210854715202004e-14"/>
  <constraint index="6" slack="-3"/>
  <constraint index="7" slack="7.1054273576010019e-15"/>
  <constraint index="8" slack="0"/>
  <constraint index="9" slack="3.5527136788005009e-15"/>
  <constraint index="10" slack="1.4210854715202004e-14"/>
  <constraint index="11" slack="-78.000000000000014"/>
  <constraint index="12" slack="-24.999999999999936"/>
  <constraint index="13" slack="-53.000000000000064"/>
  <constraint index="14" slack="-29.999999999999929"/>
  <constraint index="15" slack="-43.000000000000071"/>
  <constraint index="16" slack="-39.999999999999929"/>
  <constraint index="17" slack="-36.000000000000071"/>
  <constraint index="18" slack="-19.99999999999995"/>
  <constraint index="19" slack="-54.00000000000005"/>
  <constraint index="20" slack="-24.999999999999943"/>
  <constraint index="21" slack="-44.000000000000057"/>
  <constraint index="22" slack="-34.999999999999943"/>
  <constraint index="23" slack="-37.000000000000057"/>
  <constraint index="24" slack="7.1054273576010019e-15"/>
  <constraint index="25" slack="-69"/>
  <constraint index="26" slack="-9.9999999999999964"/>
  <constraint index="27" slack="-62"/>
  <constraint index="28" slack="-3.5527136788005009e-15"/>
  <constraint index="29" slack="-67"/>
  <constraint index="30" slack="-5.9999999999999503"/>
  <constraint index="31" slack="-67.000000000000057"/>
  <constraint index="32" slack="-13.999999999999936"/>
  <constraint index="33" slack="-59.000000000000064"/>
  <constraint index="34" slack="-24.999999999999915"/>
  <constraint index="35" slack="-50.000000000000085"/>
  <constraint index="36" slack="-50.999999999999908"/>
  <constraint index="37" slack="-22.000000000000092"/>
  <constraint index="38" slack="1.4210854715202004e-14"/>
  <constraint index="39" slack="-68.000000000000014"/>
  <constraint index="40" slack="-10.999999999999964"/>
  <constraint index="41" slack="-59.000000000000036"/>
  <constraint index="42" slack="-36.999999999999957"/>
  <constraint index="43" slack="-31.000000000000043"/>
  <constraint index="44" slack="-2.9999999999999787"/>
  <constraint index="45" slack="-67.000000000000028"/>
  <constraint index="46" slack="-28.999999999999972"/>
  <constraint index="47" slack="-39.000000000000028"/>
  <constraint index="48" slack="-19.999999999999993"/>
  <constraint index="49" slack="-50.000000000000007"/>
  <constraint index="50" slack="1.4210854715202004e-14"/>
  <constraint index="51" slack="-72.000000000000014"/>
  <constraint index="52" slack="-30.999999999999929"/>
  <constraint index="53" slack="-47.000000000000071"/>
  <constraint index="54" slack="-52.999999999999915"/>
  <constraint index="55" slack="-25.000000000000085"/>
  <constraint index="56" slack="-56.999999999999915"/>
  <constraint index="57" slack="-22.000000000000085"/>
  <constraint index="58" slack="-20.999999999999943"/>
  <constraint index="59" slack="-49.000000000000057"/>
  <constraint index="60" slack="-42.999999999999929"/>
  <constraint index="61" slack="-27.000000000000071"/>
  <constraint index="62" slack="-46.999999999999929"/>
  <constraint index="63" slack="-24.000000000000071"/>
  <constraint index="64" slack="-17.999999999999986"/>
  <constraint index="65" slack="-58.000000000000014"/>
  <constraint index="66" slack="-21.999999999999986"/>
  <constraint index="67" slack="-55.000000000000014"/>
  <constraint index="68" slack="0"/>
  <constraint index="69" slack="-77"/>
  <constraint index="70" slack="-30.999999999999929"/>
  <constraint index="71" slack="-30.999999999999943"/>
  <constraint index="72" slack="-10.999999999999993"/>
  <constraint index="73" slack="-11"/>
  <constraint index="74" slack="-10.999999999999996"/>
  <constraint index="75" slack="-28.999999999999908"/>
  <constraint index="76" slack="-22.999999999999957"/>
  <constraint index="77" slack="-22.999999999999972"/>
  <constraint index="78" slack="-19.999999999999993"/>
  <constraint index="79" slack="0"/>
  <constraint index="80" slack="-46.999999999999915"/>
  <constraint index="81" slack="-46.999999999999929"/>
  <constraint index="82" slack="-25.999999999999986"/>
  <constraint index="83" slack="-8"/>
  <constraint index="84" slack="-8"/>
  <constraint index="85" slack="-52.999999999999943"/>
  <constraint index="86" slack="-44.999999999999929"/>
  <constraint index="87" slack="-27.999999999999993"/>
  <constraint index="88" slack="-52.999999999999929"/>
  <constraint index="89" slack="-27.999999999999993"/>
  <constraint index="90" slack="-47.999999999999943"/>
  <constraint index="91" slack="-18"/>
  <constraint index="92" slack="-43.999999999999929"/>
  <constraint index="93" slack="-18"/>
  <constraint index="94" slack="-38.999999999999943"/>
  <constraint index="95" slack="-18"/>
  <constraint index="96" slack="-13.999999999999993"/>
  <constraint index="97" slack="-10.999999999999996"/>
  <constraint index="98" slack="-39.999999999999929"/>
  <constraint index="99" slack="-10.999999999999996"/>
  <constraint index="100" slack="-34.999999999999943"/>
  <constraint index="101" slack="-10.999999999999996"/>
  <constraint index="102" slack="-9.9999999999999929"/>
  <constraint index="103" slack="-10.999999999999996"/>
  <constraint index="104" slack="0"/>
  <constraint index="105" slack="-44.999999999999957"/>
  <constraint index="106" slack="-50.999999999999908"/>
  <constraint index="107" slack="-36.999999999999972"/>
  <constraint index="108" slack="-41.999999999999908"/>
  <constraint index="109" slack="-36.999999999999972"/>
  <constraint index="110" slack="-27.999999999999957"/>
  <constraint index="111" slack="-27.999999999999993"/>
  <constraint index="112" slack="-38.999999999999908"/>
  <constraint index="113" slack="-27.999999999999993"/>
  <constraint index="114" slack="-24.999999999999957"/>
  <constraint index="115" slack="-27.999999999999993"/>
  <constraint index="116" slack="-16.999999999999972"/>
  <constraint index="117" slack="0"/>
  <constraint index="118" slack="-50.999999999999908"/>
  <constraint index="119" slack="0"/>
  <constraint index="120" slack="-36.999999999999957"/>
  <constraint index="121" slack="0"/>
  <constraint index="122" slack="-28.999999999999972"/>
  <constraint index="123" slack="0"/>
  <constraint index="124" slack="-19.999999999999993"/>
  <constraint index="125" slack="-57.999999999999929"/>
  <constraint index="126" slack="-44.999999999999915"/>
  <constraint index="127" slack="-32.999999999999986"/>
  <constraint index="128" slack="-58.999999999999915"/>
  <constraint index="129" slack="-32.999999999999986"/>
  <constraint index="130" slack="-48.999999999999929"/>
  <constraint index="131" slack="-11"/>
  <constraint index="132" slack="-63.999999999999915"/>
  <constraint index="133" slack="-11"/>
  <constraint index="134" slack="-53.999999999999929"/>
  <constraint index="135" slack="-11"/>
  <constraint index="136" slack="-28.999999999999986"/>
  <constraint index="137" slack="-8"/>
  <constraint index="138" slack="-56.999999999999915"/>
  <constraint index="139" slack="-8"/>
  <constraint index="140" slack="-46.999999999999929"/>
  <constraint index="141" slack="-8"/>
  <constraint index="142" slack="-21.999999999999986"/>
  <constraint index="143" slack="-8"/>
  <constraint index="144" slack="0"/>
  <constraint index="145" slack="-11.000000000000071"/>
  <constraint index="146" slack="-6.0000000000000568"/>
  <constraint index="147" slack="-11.000000000000071"/>
  <constraint index="148" slack="-31.000000000000007"/>
  <constraint index="149" slack="-11.000000000000071"/>
  <constraint index="150" slack="-36"/>
  <constraint index="151" slack="-11.000000000000071"/>
  <constraint index="152" slack="-46"/>
  <constraint index="153" slack="-12.000000000000057"/>
  <constraint index="154" slack="-22.000000000000007"/>
  <constraint index="155" slack="-12.000000000000057"/>
  <constraint index="156" slack="-27"/>
  <constraint index="157" slack="-12.000000000000057"/>
  <constraint index="158" slack="-37"/>
  <constraint index="159" slack="-37.000000000000007"/>
  <constraint index="160" slack="-25"/>
  <constraint index="161" slack="-37.000000000000007"/>
  <constraint index="162" slack="-35"/>
  <constraint index="163" slack="-42"/>
  <constraint index="164" slack="-36"/>
  <constraint index="165" slack="-8.0000000000000924"/>
  <constraint index="166" slack="-12.000000000000043"/>
  <constraint index="167" slack="-8.0000000000000924"/>
  <constraint index="168" slack="-20.000000000000028"/>
  <constraint index="169" slack="-8.0000000000000924"/>
  <constraint index="170" slack="-31.000000000000007"/>
  <constraint index="171" slack="-8.0000000000000924"/>
  <constraint index="172" slack="-57"/>
  <constraint index="173" slack="-17.000000000000043"/>
  <constraint index="174" slack="-2.0000000000000284"/>
  <constraint index="175" slack="-17.000000000000043"/>
  <constraint index="176" slack="-13.000000000000007"/>
  <constraint index="177" slack="-17.000000000000043"/>
  <constraint index="178" slack="-39"/>
  <constraint index="179" slack="-25.000000000000028"/>
  <constraint index="180" slack="-28.000000000000007"/>
  <constraint index="181" slack="-25.000000000000028"/>
  <constraint index="182" slack="-54"/>
  <constraint index="183" slack="-36.000000000000007"/>
  <constraint index="184" slack="-56"/>
  <constraint index="185" slack="-8.5265128291212022e-14"/>
  <constraint index="186" slack="-7.1054273576010019e-14"/>
  <constraint index="187" slack="-8.5265128291212022e-14"/>
  <constraint index="188" slack="-31.000000000000014"/>
  <constraint index="189" slack="-8.5265128291212022e-14"/>
  <constraint index="190" slack="-53"/>
  <constraint index="191" slack="-8.5265128291212022e-14"/>
  <constraint index="192" slack="-57"/>
  <constraint index="193" slack="-2.0000000000000711"/>
  <constraint index="194" slack="-23.000000000000014"/>
  <constraint index="195" slack="-2.0000000000000711"/>
  <constraint index="196" slack="-45"/>
  <constraint index="197" slack="-2.0000000000000711"/>
  <constraint index="198" slack="-49"/>
  <constraint index="199" slack="-33.000000000000014"/>
  <constraint index="200" slack="-43"/>
  <constraint index="201" slack="-33.000000000000014"/>
  <constraint index="202" slack="-47"/>
  <constraint index="203" slack="-55"/>
  <constraint index="204" slack="-39"/>
  <constraint index="205" slack="-6.0000000000000711"/>
  <constraint index="206" slack="-2.0000000000000568"/>
  <constraint index="207" slack="-25.000000000000007"/>
  <constraint index="208" slack="-36"/>
  <constraint index="209" slack="-52"/>
  <constraint index="210" slack="-6.0000000000000924"/>
  <constraint index="211" slack="-2.0000000000000426"/>
  <constraint index="212" slack="-25.000000000000028"/>
  <constraint index="213" slack="-36.000000000000007"/>
  <constraint index="214" slack="-52"/>
  <constraint index="215" slack="-8.5265128291212022e-14"/>
  <constraint index="216" slack="-2.0000000000000711"/>
  <constraint index="217" slack="-25.000000000000014"/>
  <constraint index="218" slack="-39"/>
  <constraint index="219" slack="-52"/>
 </linearConstraints>
 <variables>
  <variable name="x_0_0" index="0" value="57.999999999999929"/>
  <variable name="x_0_1" index="1" value="52.999999999999943"/>
  <variable name="x_0_2" index="2" value="27.999999999999993"/>
  <variable name="x_0_3" index="3" value="18"/>
  <variable name="x_0_4" index="4" value="10.999999999999996"/>
  <variable name="x_1_0" index="5" value="58.999999999999908"/>
  <variable name="x_1_1" index="6" value="44.999999999999957"/>
  <variable name="x_1_2" index="7" value="36.999999999999972"/>
  <variable name="x_1_3" index="8" value="27.999999999999993"/>
  <variable name="x_1_4" index="9" value="0"/>
  <variable name="x_2_0" index="10" value="67.999999999999915"/>
  <variable name="x_2_1" index="11" value="57.999999999999929"/>
  <variable name="x_2_2" index="12" value="32.999999999999986"/>
  <variable name="x_2_3" index="13" value="11"/>
  <variable name="x_2_4" index="14" value="8"/>
  <variable name="z_0_0_1" index="15" value="0"/>
  <variable name="z_0_0_2" index="16" value="0"/>
  <variable name="z_0_0_3" index="17" value="0"/>
  <variable name="z_0_0_4" index="18" value="0"/>
  <variable name="z_0_1_2" index="19" value="0"/>
  <variable name="z_0_1_3" index="20" value="0"/>
  <variable name="z_0_1_4" index="21" value="0"/>
  <variable name="z_0_2_3" index="22" value="0"/>
  <variable name="z_0_2_4" index="23" value="0"/>
  <variable name="z_0_3_4" index="24" value="0"/>
  <variable name="z_1_0_1" index="25" value="0"/>
  <variable name="z_1_0_2" index="26" value="0"/>
  <variable name="z_1_0_3" index="27" value="0"/>
  <variable name="z_1_0_4" index="28" value="0"/>
  <variable name="z_1_1_2" index="29" value="0"/>
  <variable name="z_1_1_3" index="30" value="0"/>
  <variable name="z_1_1_4" index="31" value="0"/>
  <variable name="z_1_2_3" index="32" value="0"/>
  <variable name="z_1_2_4" index="33" value="0"/>
  <variable name="z_1_3_4" index="34" value="0"/>
  <variable name="z_2_0_1" index="35" value="0"/>
  <variable name="z_2_0_2" index="36" value="0"/>
  <variable name="z_2_0_3" index="37" value="0"/>
  <variable name="z_2_0_4" index="38" value="0"/>
  <variable name="z_2_1_2" index="39" value="0"/>
  <variable name="z_2_1_3" index="40" value="0"/>
  <variable name="z_2_1_4" index="41" value="0"/>
  <variable name="z_2_2_3" index="42" value="0"/>
  <variable name="z_2_2_4" index="43" value="0"/>
  <variable name="z_2_3_4" index="44" value="0"/>
  <variable name="cmax" index="45" value="70"/>
 </variables>
</CPLEXSolution>
